1000
150 150
1 105 955
2 105 902
3 105 952
4 105 767
5 105 918
6 105 928
7 105 499
8 104 994
9 104 805
10 104 246
11 104 970
12 104 223
13 104 651
14 104 575
15 104 527
16 104 967
17 104 353
18 103 25
19 103 645
20 103 830
21 103 924
22 103 467
23 103 316
24 103 655
25 103 831
26 103 648
27 103 838
28 103 969
29 102 653
30 102 454
31 102 210
32 102 580
33 102 24
34 102 641
35 102 872
36 102 48
37 101 917
38 101 562
39 101 121
40 101 794
41 101 388
42 101 127
43 101 521
44 101 675
45 100 540
46 100 53
47 100 630
48 99 54
49 99 306
50 99 717
51 99 619
52 99 555
53 99 455
54 99 354
55 99 915
56 99 438
57 99 92
58 99 758
59 98 486
60 98 598
61 98 513
62 98 54
63 98 198
64 98 692
65 98 197
66 98 213
67 97 42
68 97 617
69 97 559
70 97 282
71 97 199
72 97 295
73 97 454
74 97 906
75 97 382
76 97 939
77 97 203
78 97 635
79 97 4
80 97 370
81 97 791
82 96 579
83 96 714
84 96 620
85 96 147
86 96 789
87 96 974
88 96 562
89 96 545
90 95 704
91 95 448
92 95 853
93 95 387
94 95 332
95 95 478
96 95 634
97 95 68
98 94 346
99 94 139
100 94 531
101 94 117
102 94 299
103 94 32
104 94 925
105 94 261
106 94 534
107 94 861
108 94 732
109 94 118
110 94 202
111 94 385
112 94 257
113 93 898
114 93 847
115 93 112
116 93 92
117 93 721
118 93 252
119 93 738
120 93 475
121 93 826
122 93 824
123 93 102
124 92 891
125 92 669
126 92 50
127 92 898
128 92 180
129 92 301
130 92 540
131 92 304
132 92 381
133 92 12
134 92 133
135 92 683
136 92 345
137 92 368
138 92 617
139 91 693
140 91 57
141 91 6
142 91 209
143 91 483
144 91 306
145 91 865
146 91 899
147 91 908
148 91 286
149 91 907
150 91 392
151 91 945
152 91 918
153 90 936
154 90 368
155 90 829
156 90 653
157 90 460
158 90 875
159 90 981
160 90 766
161 90 589
162 90 248
163 90 340
164 90 125
165 90 177
166 89 876
167 89 375
168 89 21
169 89 323
170 89 340
171 89 316
172 89 399
173 89 530
174 89 213
175 89 14
176 88 359
177 88 324
178 88 858
179 88 610
180 88 319
181 88 716
182 88 720
183 88 271
184 88 38
185 88 927
186 88 313
187 88 648
188 88 80
189 88 659
190 88 695
191 88 702
192 87 65
193 87 19
194 87 436
195 87 566
196 87 83
197 87 136
198 87 752
199 87 970
200 87 146
201 87 469
202 87 841
203 87 751
204 86 836
205 86 464
206 86 905
207 86 970
208 86 123
209 86 717
210 86 729
211 86 848
212 86 120
213 85 998
214 85 579
215 85 775
216 85 129
217 85 974
218 85 967
219 85 354
220 85 905
221 85 330
222 85 656
223 85 542
224 84 115
225 84 148
226 84 163
227 84 583
228 84 436
229 84 879
230 84 405
231 83 300
232 83 618
233 83 160
234 83 34
235 83 721
236 83 564
237 83 513
238 83 111
239 83 698
240 83 572
241 83 589
242 83 973
243 83 37
244 83 989
245 83 434
246 83 123
247 83 252
248 82 268
249 82 968
250 82 399
251 82 930
252 82 959
253 82 137
254 82 537
255 82 193
256 82 370
257 82 759
258 82 945
259 82 126
260 82 445
261 82 262
262 82 667
263 82 537
264 82 822
265 82 181
266 82 653
267 81 669
268 81 508
269 81 43
270 81 77
271 81 631
272 81 390
273 81 352
274 81 470
275 81 704
276 81 601
277 81 581
278 80 676
279 80 338
280 80 228
281 80 27
282 80 210
283 80 929
284 80 879
285 80 998
286 80 235
287 80 250
288 80 775
289 79 365
290 79 478
291 79 262
292 79 204
293 79 704
294 79 428
295 79 939
296 79 539
297 79 269
298 79 896
299 79 70
300 79 890
301 78 588
302 78 678
303 78 429
304 78 565
305 78 21
306 78 162
307 78 43
308 78 571
309 78 941
310 78 69
311 78 959
312 78 651
313 78 759
314 78 412
315 78 265
316 78 282
317 78 179
318 77 661
319 77 415
320 77 162
321 77 329
322 77 763
323 77 703
324 77 303
325 77 890
326 76 575
327 76 969
328 76 41
329 76 153
330 76 445
331 76 1000
332 76 146
333 76 61
334 75 729
335 75 552
336 75 473
337 75 288
338 75 638
339 75 243
340 75 382
341 75 411
342 75 653
343 75 166
344 75 179
345 74 66
346 74 288
347 74 953
348 74 305
349 74 26
350 74 839
351 74 367
352 74 54
353 74 631
354 74 495
355 74 956
356 74 194
357 73 263
358 73 575
359 73 309
360 73 488
361 73 226
362 73 287
363 72 169
364 72 781
365 72 469
366 72 948
367 72 635
368 72 377
369 72 370
370 72 283
371 72 171
372 72 105
373 72 563
374 72 582
375 72 925
376 71 509
377 71 313
378 71 733
379 71 653
380 71 191
381 71 535
382 71 87
383 71 249
384 71 436
385 71 41
386 71 587
387 71 919
388 71 994
389 71 558
390 71 916
391 71 356
392 71 825
393 71 446
394 71 445
395 71 607
396 70 626
397 70 158
398 70 499
399 70 77
400 70 762
401 70 95
402 70 340
403 70 282
404 70 628
405 69 663
406 69 633
407 69 37
408 69 950
409 69 692
410 69 615
411 69 526
412 68 423
413 68 714
414 68 433
415 67 49
416 67 323
417 67 519
418 67 567
419 67 643
420 67 476
421 67 602
422 67 702
423 67 290
424 67 393
425 67 141
426 67 218
427 66 26
428 66 705
429 66 342
430 66 934
431 66 239
432 66 92
433 66 871
434 66 599
435 66 576
436 66 298
437 66 716
438 65 670
439 65 636
440 65 324
441 65 899
442 65 572
443 65 428
444 65 223
445 65 631
446 65 684
447 65 1000
448 65 567
449 65 2
450 65 10
451 65 274
452 65 575
453 65 171
454 65 701
455 64 703
456 64 497
457 64 443
458 64 253
459 64 655
460 64 403
461 64 88
462 64 977
463 64 510
464 64 317
465 64 865
466 64 961
467 64 128
468 64 50
469 63 549
470 63 532
471 63 886
472 63 831
473 63 51
474 63 747
475 62 154
476 62 635
477 62 234
478 62 18
479 62 763
480 62 493
481 62 103
482 62 972
483 62 341
484 62 56
485 62 961
486 61 896
487 61 126
488 61 355
489 61 141
490 61 786
491 61 127
492 61 515
493 61 955
494 61 557
495 60 845
496 60 348
497 60 881
498 60 561
499 60 576
500 60 151
501 60 956
502 60 779
503 59 20
504 59 302
505 59 266
506 59 65
507 59 112
508 59 765
509 59 970
510 59 468
511 59 891
512 59 144
513 59 982
514 59 388
515 59 926
516 59 790
517 59 422
518 59 606
519 59 720
520 59 766
521 59 992
522 58 556
523 58 735
524 58 375
525 58 917
526 58 266
527 58 153
528 58 686
529 58 221
530 58 580
531 58 113
532 58 969
533 58 862
534 58 104
535 58 103
536 57 381
537 57 489
538 57 288
539 57 361
540 57 423
541 56 280
542 56 452
543 56 388
544 56 523
545 56 583
546 56 625
547 56 856
548 55 16
549 55 980
550 55 196
551 55 685
552 55 99
553 55 729
554 55 732
555 55 96
556 55 469
557 55 190
558 55 983
559 54 936
560 54 800
561 54 487
562 54 446
563 54 696
564 54 967
565 54 743
566 54 978
567 54 833
568 54 56
569 54 971
570 53 903
571 53 780
572 53 33
573 53 9
574 53 252
575 53 743
576 53 227
577 53 962
578 53 91
579 53 219
580 52 566
581 52 397
582 52 729
583 52 216
584 52 236
585 52 916
586 52 889
587 52 888
588 52 767
589 52 515
590 52 291
591 51 163
592 51 302
593 51 262
594 51 330
595 51 967
596 51 203
597 51 189
598 51 596
599 51 415
600 51 736
601 51 182
602 51 100
603 51 435
604 51 72
605 51 671
606 50 885
607 50 655
608 50 176
609 50 622
610 50 12
611 50 304
612 50 447
613 50 50
614 49 682
615 49 215
616 49 684
617 49 371
618 49 408
619 49 976
620 49 282
621 49 818
622 48 221
623 48 629
624 48 489
625 48 463
626 48 599
627 48 17
628 48 513
629 48 99
630 48 400
631 48 520
632 48 50
633 47 236
634 47 161
635 47 618
636 47 903
637 47 809
638 47 435
639 47 288
640 47 606
641 47 824
642 47 13
643 46 322
644 46 793
645 46 710
646 46 202
647 45 6
648 45 291
649 45 660
650 45 237
651 45 166
652 45 813
653 45 523
654 45 64
655 45 348
656 45 25
657 45 183
658 45 175
659 45 724
660 44 400
661 44 210
662 44 261
663 44 384
664 44 172
665 44 801
666 44 806
667 44 788
668 44 202
669 44 705
670 44 441
671 44 143
672 43 513
673 43 846
674 43 753
675 43 84
676 43 413
677 43 409
678 43 110
679 43 816
680 43 321
681 43 39
682 43 370
683 43 393
684 43 653
685 43 657
686 43 162
687 42 763
688 42 852
689 42 716
690 42 407
691 42 190
692 42 388
693 42 778
694 42 270
695 42 782
696 42 17
697 42 422
698 42 517
699 42 792
700 42 713
701 42 934
702 42 182
703 41 16
704 41 252
705 41 464
706 41 761
707 41 678
708 41 764
709 41 151
710 41 456
711 41 993
712 41 690
713 41 555
714 41 640
715 41 474
716 41 701
717 41 398
718 40 521
719 40 496
720 40 189
721 40 861
722 40 478
723 40 907
724 40 574
725 40 857
726 40 822
727 40 746
728 39 244
729 39 200
730 39 699
731 39 344
732 39 158
733 39 976
734 39 209
735 39 998
736 39 455
737 39 136
738 39 892
739 38 676
740 38 496
741 38 702
742 38 488
743 38 120
744 38 373
745 38 384
746 38 781
747 38 198
748 38 526
749 38 768
750 38 841
751 38 482
752 38 968
753 37 117
754 37 184
755 37 590
756 37 821
757 37 303
758 37 198
759 37 903
760 37 285
761 36 635
762 36 686
763 36 327
764 36 989
765 36 92
766 36 384
767 36 290
768 36 498
769 36 207
770 36 970
771 36 540
772 36 904
773 36 79
774 35 6
775 35 473
776 35 391
777 35 888
778 35 888
779 35 865
780 35 64
781 35 795
782 35 299
783 35 748
784 35 95
785 35 556
786 34 827
787 34 464
788 34 834
789 34 516
790 34 411
791 33 803
792 33 709
793 33 343
794 33 724
795 33 266
796 33 38
797 33 276
798 33 260
799 33 255
800 32 73
801 32 971
802 32 384
803 32 413
804 32 797
805 32 770
806 32 745
807 32 948
808 32 518
809 32 472
810 31 355
811 31 726
812 31 11
813 31 949
814 31 925
815 31 589
816 31 464
817 31 559
818 31 863
819 31 17
820 31 574
821 30 648
822 30 975
823 30 129
824 30 911
825 30 627
826 30 703
827 30 107
828 30 87
829 30 883
830 29 378
831 29 637
832 29 372
833 29 867
834 29 730
835 29 681
836 29 200
837 29 619
838 29 310
839 29 769
840 28 172
841 28 95
842 28 117
843 28 885
844 28 70
845 28 462
846 28 363
847 28 117
848 28 773
849 28 508
850 28 908
851 27 666
852 27 834
853 27 225
854 27 231
855 27 524
856 27 75
857 27 408
858 27 885
859 26 290
860 26 306
861 26 183
862 26 324
863 26 506
864 26 383
865 26 309
866 26 343
867 26 618
868 26 1
869 26 595
870 26 576
871 26 307
872 26 180
873 26 208
874 25 980
875 25 645
876 25 624
877 25 781
878 25 457
879 25 765
880 25 98
881 25 485
882 25 494
883 25 330
884 25 257
885 25 589
886 25 260
887 25 222
888 24 32
889 24 243
890 24 852
891 24 539
892 24 347
893 24 594
894 24 232
895 24 863
896 24 433
897 24 293
898 24 273
899 24 644
900 24 581
901 23 847
902 23 12
903 23 654
904 23 570
905 23 707
906 23 729
907 23 721
908 23 824
909 23 880
910 23 938
911 22 687
912 22 989
913 22 136
914 22 484
915 22 900
916 22 573
917 22 667
918 22 168
919 22 61
920 21 167
921 21 624
922 21 934
923 21 886
924 21 348
925 21 972
926 21 543
927 21 490
928 21 836
929 20 848
930 20 75
931 20 611
932 20 690
933 20 990
934 20 484
935 20 910
936 20 336
937 20 780
938 20 171
939 19 508
940 19 799
941 19 539
942 19 489
943 19 922
944 19 630
945 19 407
946 19 170
947 19 480
948 19 726
949 19 739
950 19 89
951 19 587
952 19 185
953 18 496
954 18 330
955 18 355
956 18 450
957 18 223
958 18 914
959 18 312
960 18 483
961 18 570
962 18 930
963 17 944
964 17 37
965 17 89
966 17 332
967 17 937
968 17 418
969 17 313
970 17 609
971 17 558
972 17 495
973 17 422
974 17 109
975 17 12
976 17 179
977 17 368
978 16 366
979 16 743
980 16 114
981 16 892
982 16 566
983 16 695
984 16 577
985 16 804
986 16 851
987 16 314
988 16 259
989 16 233
990 16 963
991 16 186
992 15 99
993 15 920
994 15 513
995 15 150
996 15 220
997 15 699
998 15 296
999 15 354
1000 15 255
